p cnf 58 69
-1 3 41 -42 0 
-2 6 41 -42 0 
-3 1 42 -41 0 
-4 9 43 -44 -46 -47 -48 -49 -50 -51 -52 -53 -54 -55 -56 -58 0 
-5 38 40 44 -43 -46 -47 -48 -49 -50 -51 -52 -53 -54 -55 -56 -58 0 
-6 2 44 -43 -46 -47 -48 -49 -50 -51 -52 -53 -54 -55 -56 -58 0 
-7 45 -1 -3 -41 -42 0 
-8 -9 4 -10 45 -1 -3 -41 -42 0 
-11 12 18 20 41 -42 0 
-12 11 18 20 42 -41 0 
-13 -14 46 -43 -44 -47 -48 -49 -50 -51 -52 -53 -54 -55 -56 -58 0 
-15 23 47 -43 -44 -46 -48 -49 -50 -51 -52 -53 -54 -55 -56 -58 0 
-16 -15 23 45 -1 -3 -41 -42 0 
-17 -15 23 45 -1 -3 -41 -42 0 
-15 23 43 -44 -46 -47 -48 -49 -50 -51 -52 -53 -54 -55 -56 -58 0 
-18 11 12 20 -15 23 44 -43 -46 -47 -48 -49 -50 -51 -52 -53 -54 -55 -56 -58 0 
-15 23 -8 -9 4 48 -43 -44 -46 -47 -49 -50 -51 -52 -53 -54 -55 -56 -58 0 
-13 -14 49 -43 -44 -46 -47 -48 -50 -51 -52 -53 -54 -55 -56 -58 0 
-19 -14 50 -43 -44 -46 -47 -48 -49 -51 -52 -53 -54 -55 -56 -58 0 
-20 11 12 18 -8 -9 4 45 -1 -3 -41 -42 0 
-6 2 42 -41 0 
-21 45 -1 -3 -41 -42 0 
-22 51 -43 -44 -46 -47 -48 -49 -50 -52 -53 -54 -55 -56 -58 0 
-16 52 -43 -44 -46 -47 -48 -49 -50 -51 -53 -54 -55 -56 -58 0 
-21 53 -43 -44 -46 -47 -48 -49 -50 -51 -52 -54 -55 -56 -58 0 
-13 54 -43 -44 -46 -47 -48 -49 -50 -51 -52 -53 -55 -56 -58 0 
-16 55 -43 -44 -46 -47 -48 -49 -50 -51 -52 -53 -54 -56 -58 0 
-22 53 -43 -44 -46 -47 -48 -49 -50 -51 -52 -54 -55 -56 -58 0 
-23 15 56 -43 -44 -46 -47 -48 -49 -50 -51 -52 -53 -54 -55 -58 0 
-8 -7 45 -1 -3 -41 -42 0 
-16 -7 45 -1 -3 -41 -42 0 
-24 45 -1 -3 -41 -42 0 
-17 45 -1 -3 -41 -42 0 
-20 11 12 18 41 -42 0 
-7 57 -41 -42 0 
-20 11 12 18 45 -1 -3 -41 -42 0 
-25 45 -1 -3 -41 -42 0 
-24 -9 4 -10 45 -1 -3 -41 -42 0 
-26 35 45 -1 -3 -41 -42 0 
-4 9 -27 -8 -28 32 -23 15 57 -41 -42 0 
-10 45 -1 -3 -41 -42 0 
-16 45 -1 -3 -41 -42 0 
-29 41 -42 0 
-22 45 -1 -3 -41 -42 0 
-30 41 -42 0 
-31 45 -1 -3 -41 -42 0 
-19 -32 28 45 -1 -3 -41 -42 0 
-28 32 -15 23 45 -1 -3 -41 -42 0 
-16 -28 32 -15 23 45 -1 -3 -41 -42 0 
-17 -28 32 -15 23 45 -1 -3 -41 -42 0 
-28 32 -14 45 -1 -3 -41 -42 0 
-28 32 -15 23 -8 -9 4 45 -1 -3 -41 -42 0 
-19 45 -1 -3 -41 -42 0 
-33 45 -1 -3 -41 -42 0 
-34 45 -1 -3 -41 -42 0 
-2 6 45 -1 -3 -41 -42 0 
-35 26 45 -1 -3 -41 -42 0 
-6 2 45 -1 -3 -41 -42 0 
-35 26 45 -1 -3 -41 -42 0 
-36 45 -1 -3 -41 -42 0 
-37 39 45 -1 -3 -41 -42 0 
-22 -8 -7 45 -1 -3 -41 -42 0 
-30 -15 23 -10 44 -43 -46 -47 -48 -49 -50 -51 -52 -53 -54 -55 -56 -58 0 
-8 -9 4 45 -1 -3 -41 -42 0 
-25 58 -43 -44 -46 -47 -48 -49 -50 -51 -52 -53 -54 -55 -56 0 
-13 45 -1 -3 -41 -42 0 
-38 5 40 41 -42 0 
-39 37 42 -41 0 
-40 5 38 42 -41 0 
